30 30
20
3 3 14 14
4 3 3 17
5 3 0 0
6 3 7 17
7 3 23 17
8 3 3 23
9 3 17 14
10 3 13 17
11 3 3 20
3 13 0 17
14 3 0 14
16 3 14 20
19 3 11 23
25 3 5 0
4 3 26 14
4 4 26 26
6 4 12 26
8 4 18 26
9 4 3 26
30 11 0 3
